c read Graph
c width = 120
c time = 83 ms
c width = 9
c time = 147 ms
c width = 8
c time = 203 ms
c width = 8
c time = 4939 ms
s td 122 9 133
b 1 1 2 20
b 2 2 3 20 21
b 3 17 18 37 38
b 4 3 20 21 39
b 5 17 37 38 57
b 6 77 96 97 116
b 7 95 113 114 132
b 8 77 97 116 117
b 9 95 113 131 132
b 10 3 4 5 23
b 11 3 5 22 23 40 58
b 12 5 22 23 40 42 58 60
b 13 5 23 40 42 58 60 78
b 14 40 58 59 60 78
b 15 5 23 42 58 60 78 80 100 120
b 16 5 23 42 60 78 80 100 120
b 17 5 23 42 60 62 80 100 120
b 18 5 23 42 43 62 80 100 120
b 19 5 23 25 43 62 80 100 120
b 20 5 23 24 25 43
b 21 5 25 43 62 80 82 100 120
b 22 5 25 43 62 63 82 100 120
b 23 5 25 43 45 63 82 100 120
b 24 25 43 44 45 63
b 25 5 25 45 63 82 100 102 120
b 26 5 25 45 63 82 83 102 120
b 27 5 25 45 63 65 83 102 120
b 28 5 25 45 65 83 102 120 122
b 29 5 25 45 65 83 102 103 122
b 30 5 25 45 65 83 85 103 122
b 31 5 9 25 27 45 65 85 103 122
b 32 9 27 45 47 65 85 103 122
b 33 9 27 47 65 67 85 103 122
b 34 9 27 47 67 85 103 105 122 124
b 35 9 27 47 67 85 87 105 124
b 36 9 27 47 67 87 105 124 126
b 37 9 27 47 67 87 105 107 124 126
b 38 87 105 106 107 124 126
b 39 106 124 125 126
b 40 9 27 29 47 67 87 107 126
b 41 9 29 47 49 67 87 107 126
b 42 9 13 29 31 49 67 87 107 126
b 43 9 11 13 29 31 49
b 44 9 10 11 29
b 45 11 12 13 31
b 46 11 29 30 31 49
b 47 13 31 49 67 69 87 107 126
b 48 49 67 68 69 87
b 49 13 31 49 69 87 89 107 126
b 50 13 31 49 69 89 107 108 126
b 51 13 31 49 69 89 108 126 128
b 52 13 31 49 51 69 89 108 128
b 53 31 49 50 51 69
b 54 13 31 51 69 71 89 108 128
b 55 51 69 70 71 89
b 56 13 31 51 71 89 90 108 128
b 57 13 31 51 71 90 108 110 128
b 58 90 108 109 110 128
b 59 13 31 33 51 71 90 110 128
b 60 13 31 32 33 51
b 61 13 33 51 53 71 90 110 128
b 62 33 51 52 53 71
b 63 108 126 127 128
b 64 69 87 88 89 107
b 65 29 47 48 49 67
b 66 9 27 28 29 47
b 67 67 85 86 87 105
b 68 85 103 104 105 122 124
b 69 104 122 123 124
b 70 47 65 66 67 85
b 71 27 45 46 47 65
b 72 5 7 9 25 27 45
b 73 7 8 9 27
b 74 7 25 26 27 45
b 75 5 6 7 25
b 76 65 83 84 85 103
b 77 102 120 121 122
b 78 45 63 64 65 83
b 79 82 100 101 102 120
b 80 62 80 81 82 100
b 81 42 60 61 62 80
b 82 58 60 78 80 100 118 120
b 83 100 118 119 120
b 84 58 60 78 80 98 100 118
b 85 80 98 99 100 118
b 86 60 78 79 80 98
b 87 58 78 98 117 118
b 88 58 77 78 98 117
b 89 77 78 97 98 117
b 90 22 40 41 42 60
b 91 3 22 39 40 58
b 92 3 21 22 39 40
b 93 72 90 91 92 110
b 94 13 33 53 71 72 90 110 128
b 95 13 33 53 54 56 74 76 94
b 96 13 33 53 72 90 92 110 128
b 97 13 33 53 54 72 74 76 92 94
b 98 13 33 53 72 74 76 92 94 112
b 99 13 33 53 72 76 92 94 112 130
b 100 13 33 53 72 92 110 112 130
b 101 13 33 53 72 92 110 128 130
b 102 110 128 129 130
b 103 92 110 111 112 130
b 104 74 92 93 94 112
b 105 54 72 73 74 92
b 106 13 33 36 53 54 56 74 76
b 107 36 54 55 56 74
b 108 13 17 33 36 53 54 56 76
b 109 17 36 56 57 76
b 110 17 36 37 56 57
b 111 13 17 33 35 36 53 54
b 112 13 15 17 33 35 53
b 113 15 33 34 35 53
b 114 13 14 15 33
b 115 15 16 17 35
b 116 76 94 112 130 131
b 117 76 94 95 112 131
b 118 94 95 112 113 131
b 119 56 74 75 76 94
b 120 114 132 133
b 121 96 115 116
b 122 18 19 38
1 2
2 4
3 122
3 5
4 92
5 110
6 121
6 8
7 120
7 9
8 89
9 118
10 11
11 91
11 12
12 90
12 13
13 15
13 14
15 82
15 16
16 17
17 81
17 18
18 19
19 21
19 20
21 80
21 22
22 23
23 24
23 25
25 79
25 26
26 27
27 78
27 28
28 77
28 29
29 30
30 76
30 31
31 72
31 32
32 71
32 33
33 70
33 34
34 68
34 35
35 67
35 36
36 37
37 38
37 40
38 39
40 66
40 41
41 65
41 42
42 43
42 47
43 44
43 45
43 46
47 48
47 49
49 64
49 50
50 51
51 63
51 52
52 53
52 54
54 55
54 56
56 57
57 58
57 59
59 61
59 60
61 94
61 62
68 69
72 75
72 73
72 74
82 83
82 84
84 87
84 86
84 85
87 88
88 89
91 92
93 96
94 96
95 106
95 119
95 97
96 101
97 105
97 98
98 104
98 99
99 116
99 100
100 103
100 101
101 102
106 107
106 108
108 109
108 111
109 110
111 112
112 114
112 115
112 113
116 117
117 118
